NAME 
ROWS
 N  OBJ
 L  R0      
 L  R1      
 E  R2      
 E  R3      
 E  R4      
 E  R5      
 E  R6      
 E  R7      
 E  R8      
 E  R9      
 E  R10     
 E  R11     
COLUMNS
    MARKER    'MARKER'                 'INTORG'
    I0(8)     OBJ       41
    I0(8)     R0        -187
    I0(8)     R1        107
    I0(8)     R2        5
    I0(8)     R3        15
    I0(8)     R4        7
    I0(8)     R5        14
    I0(8)     R6        13
    I0(8)     R11       1
    I1(7)     OBJ       86
    I1(7)     R0        96
    I1(7)     R1        -176
    I1(7)     R2        17
    I1(7)     R3        13
    I1(7)     R5        7
    I1(7)     R6        5
    I1(7)     R11       1
    I2(7)     OBJ       -16
    I2(7)     R0        -112
    I2(7)     R1        -112
    I2(7)     R2        18
    I2(7)     R3        12
    I2(7)     R5        6
    I2(7)     R6        19
    I2(7)     R11       1
    I3(5)     OBJ       180
    I3(5)     R0        35
    I3(5)     R1        -48
    I3(5)     R4        -1
    I3(5)     R5        11
    I3(5)     R11       1
    I4(6)     OBJ       -74
    I4(6)     R0        -86
    I4(6)     R1        123
    I4(6)     R3        5
    I4(6)     R4        17
    I4(6)     R6        5
    I4(6)     R11       1
    MARKER    'MARKER'                 'INTEND'
    C5(9)     OBJ       -1
    C5(9)     R0        -9
    C5(9)     R1        -7
    C5(9)     R3        14
    C5(9)     R4        1
    C5(9)     R5        16
    C5(9)     R7        18
    C5(9)     R8        17
    C5(9)     R9        1
    C5(9)     R10       4
    C6(10)    OBJ       -4
    C6(10)    R0        -7
    C6(10)    R1        -4
    C6(10)    R2        10
    C6(10)    R3        4
    C6(10)    R4        14
    C6(10)    R5        7
    C6(10)    R6        6
    C6(10)    R8        14
    C6(10)    R9        4
    C6(10)    R10       -1
    C7(8)     OBJ       6
    C7(8)     R0        -3
    C7(8)     R1        -9
    C7(8)     R3        19
    C7(8)     R5        9
    C7(8)     R7        6
    C7(8)     R8        10
    C7(8)     R9        1
    C7(8)     R10       5
    C8(10)    OBJ       9
    C8(10)    R0        7
    C8(10)    R1        -9
    C8(10)    R2        9
    C8(10)    R3        1
    C8(10)    R5        -1
    C8(10)    R6        3
    C8(10)    R7        1
    C8(10)    R8        11
    C8(10)    R9        19
    C8(10)    R10       2
    C9(10)    OBJ       -10
    C9(10)    R0        -1
    C9(10)    R1        -5
    C9(10)    R2        5
    C9(10)    R3        16
    C9(10)    R4        5
    C9(10)    R6        2
    C9(10)    R7        13
    C9(10)    R8        15
    C9(10)    R9        17
    C9(10)    R10       3
    C10(1)    R2        1
    C11(1)    R3        1
    C12(1)    R4        1
    C13(1)    R5        1
    C14(1)    R6        1
    C15(1)    R7        1
    C16(1)    R8        1
    C17(1)    R9        1
    C18(1)    R10       1
    C19(1)    R11       1
RHS
    RHS1      R0        -1.0056707317073170e+02
    RHS1      R1        9.4963414634146346e+01
    RHS1      R2        89
    RHS1      R3        82
    RHS1      R4        70
    RHS1      R5        63
    RHS1      R6        92
    RHS1      R7        79
    RHS1      R8        87
    RHS1      R9        95
    RHS1      R10       57
    RHS1      R11       1
BOUNDS
 UP BND1      I0(8)     1
 UP BND1      I1(7)     1
 UP BND1      I2(7)     1
 UP BND1      I3(5)     1
 UP BND1      I4(6)     1
ENDATA
